proyfinal/src/viki/013/andrea/andrea-localstore/experimentInOfficeAgust.take6/worker_10/d7dace5b-9c2d-4d60-adec-9624961ec72e.als.cnf.out
Reading from standard input... Use '--help' for help.
============================[ Problem Statistics ]=============================
|                                                                             |
|  Number of variables:         87638                                         |
|  Number of clauses:          161767                                         |
|  Parse time:                   0.03 s                                       |
|                                                                             |
============================[ Search Statistics ]==============================
| Conflicts |          ORIGINAL         |          LEARNT          | Progress |
|           |    Vars  Clauses Literals |    Limit  Clauses Lit/Cl |          |
===============================================================================
|       100 |   63903   110649   276533 |    40571      100     20 | 27.083 % |
|       250 |   63903   110649   276533 |    44628      250     90 | 27.083 % |
|       475 |   63903   110649   276533 |    49091      475     86 | 27.083 % |
|       812 |   63903   110649   276533 |    54000      812     68 | 27.083 % |
|      1318 |   63902   110605   276443 |    59400     1315     62 | 27.084 % |
|      2077 |   63902   110605   276443 |    65340     2074     56 | 27.084 % |
|      3216 |   63902   110605   276443 |    71874     3213     67 | 27.084 % |
|      4924 |   63902   110605   276443 |    79061     4921     70 | 27.084 % |
|      7486 |   52267    75244   189365 |    86968     7236     70 | 40.360 % |
|     11330 |   51827    74042   186493 |    95665    10379     64 | 40.862 % |
|     17096 |   51475    72222   182057 |   105231    14699     62 | 41.264 % |
===============================================================================
restarts              : 63
conflicts             : 18726          (7438 /sec)
decisions             : 62432          (0.00 % random) (24799 /sec)
propagations          : 26881625       (10677697 /sec)
conflict literals     : 1129327        (45.47 % deleted)
Memory used           : 37.00 MB
CPU time              : 2.51755 s

INDETERMINATE
